10 10 4

0 96 345 151 493 68 320 355 241 256 
441 0 404 51 69 391 446 109 265 311 
122 396 0 399 283 321 170 230 126 88 
298 132 281 0 107 385 333 415 378 107 
234 439 298 196 0 379 408 404 398 298 
105 214 62 366 286 0 165 265 275 436 
141 456 268 179 460 107 0 167 273 442 
450 187 75 263 127 465 60 0 274 99 
418 177 204 422 233 368 191 305 0 360 
306 276 134 448 368 296 423 253 463 0 

262.75 0 6
262.75 1 3
262.75 2 0
262.75 3 0
262.75 4 7
262.75 5 4
262.75 6 7
262.75 7 4
262.75 8 2
262.75 9 3

